(set-logic QF_S)
(declare-fun var0 () String)
(declare-fun var1 () Int)
(declare-fun var2 () String)
(declare-fun var3 () Int)
(declare-fun var4 () String)
(declare-fun var5 () String)
(declare-fun var6 () Int)
(assert (str.suffixof (str.at var0 var1) (str.at var2 var3)))
(assert (>= (str.len var4) (str.to.int var5)))
(assert (>= (str.indexof var4 var5 var6) (str.len var4)))
(assert (<= (str.to.int var2) (str.to.int "yWqG`r")))
(check-sat)